10
5
5
8 -1 -10 -9 -4 
106 36 138 179 143 
-8 5 8 -7 6 
-28 -116 194 -81 -86 
0 0 0 0 0 
4 0 0 0 0 
0 0 0 0 0 
7 0 0 0 13 
0 10 14 2 0 
5 0 0 0 0 
0 0 9 0 1 
0 0 0 11 8 
2 0 9 5 4 
0 0 0 0 0 
18 0 0 0 0 
0 12 0 0 0 
0 0 6 0 0 
0 0 0 9 0 
0 0 0 0 1 
0 0 0 0 0 
0 0 0 0 0 
0 0 0 0 0 
0 0 0 0 0 
1 1 1 1 1 
90 64 63 64 87 76 72 69 97 1 
1 1 1 1 1 1 1 1 1 1 
